% =============================================================================
% Generated CLP Test Instance (v3.0 - Working Pattern Replication)
% =============================================================================
% Generator: AVISPA CLP Instance Generator v3.0.0 (Professional)
% Generated: 2026-04-20 20:15:31
%
% Instance Characteristics:
%   - Buses: 7
%   - Stations: 7
%   - Max stops per bus: 7
%   - Actual stops per bus: [7, 7, 7, 7, 7, 7, 7]
%   - Total energy consumption: 7933 (scaled ×10)
%   - Average per bus: 1133 (113.3 kWh)
%   - Usable capacity: 800 (80.0 kWh)
%
% Feasibility Analysis:
%   - Overconsumption factor: 1.42x
%   - Pattern: Each bus visits every station EXACTLY ONCE
%   - Route diversity: 5 distinct patterns (sequential, reverse, alternating, diagonal)
%   - Energy forcing: Designed to require strategic charging at intermediate stations
%
% All values scaled ×10 for integer arithmetic.
% Divide by 10 to get original units (kWh, minutes).
% =============================================================================

% --- Problem Dimensions ---
num_buses = 7;
num_stations = 7;

% --- Energy Parameters (CLP Model) ---
% All values scaled ×10 from kWh
Cmax = 1000;  % 100.0 kWh maximum capacity
Cmin = 200;  % 20.0 kWh minimum reserve
alpha = 100;  % 10.0 kWh/min charging rate

% --- Time and Schedule Parameters ---
% All values scaled ×10 from minutes
mu = 50;      % 5.0 min maximum delay
SM = 10;      % 1.0 min safety margin
psi = 10;     % 1.0 min minimum charging time
beta = 100;   % 10.0 min maximum charging time
M = 10000;      % Big-M constant

% --- Route Structure ---
max_stops = 7;
num_stops = [7,7,7,7,7,7,7];

% --- Station Sequence (st_bi) ---
% Maps each bus stop to a physical station ID (1-indexed)
% Station 1 is the depot (D=0, T=0)
st_bi = array2d(1..7, 1..7, [
  1,2,3,4,5,6,7,  % Bus 1
  7,6,5,4,3,2,1,  % Bus 2
  1,3,5,7,2,4,6,  % Bus 3
  2,4,6,1,3,5,7,  % Bus 4
  1,2,3,4,5,6,7,  % Bus 5
  1,2,3,4,5,6,7,  % Bus 6
  7,6,5,4,3,2,1  % Bus 7
]);

% --- Energy Consumption (D) ---
% Energy consumed between stops (scaled ×10, divide by 10 for kWh)
D = array2d(1..7, 1..7, [
  0,199,194,194,198,190,200,  % Bus 1
  0,179,177,183,185,176,186,  % Bus 2
  0,203,207,202,199,207,204,  % Bus 3
  0,204,210,201,201,209,206,  % Bus 4
  0,178,187,181,182,178,185,  % Bus 5
  0,180,185,178,178,179,175,  % Bus 6
  0,173,172,173,178,181,176  % Bus 7
]);

% --- Travel Time (T) ---
% Time between stops (scaled ×10, divide by 10 for minutes)
T = array2d(1..7, 1..7, [
  0,139,112,132,101,114,112,  % Bus 1
  0,141,128,107,107,122,148,  % Bus 2
  0,132,145,122,144,119,115,  % Bus 3
  0,126,128,134,150,120,115,  % Bus 4
  0,144,115,138,116,116,112,  % Bus 5
  0,135,121,136,124,107,129,  % Bus 6
  0,114,120,116,103,148,115  % Bus 7
]);

% --- Timetable (tau_bi) ---
% Scheduled arrival times (scaled ×10, divide by 10 for minutes since 00:00)
% Buses are staggered to reduce station conflicts
tau_bi = array2d(1..7, 1..7, [
  14,153,265,397,498,612,724,  % Bus 1
  59,200,328,435,542,664,812,  % Bus 2
  106,238,383,505,649,768,883,  % Bus 3
  160,286,414,548,698,818,933,  % Bus 4
  217,361,476,614,730,846,958,  % Bus 5
  263,398,519,655,779,886,1015,  % Bus 6
  304,418,538,654,757,905,1020  % Bus 7
]);
